15 40
25
11 2 4 0
3 2 10 11
10 7 4 22
4 8 4 7
9 5 4 2
2 7 8 11
1 4 14 22
1 6 14 26
5 4 8 7
3 8 12 32
3 1 4 33
5 5 10 13
3 1 7 33
12 4 0 36
2 6 0 0
4 2 0 6
11 4 4 18
10 2 0 34
2 3 10 33
2 11 13 2
4 3 4 15
4 26 0 8
8 4 4 29
2 3 12 29
2 6 2 0
